% Logging successfully configured
%%%mzn-stat: initTime=0.039908258
%%%mzn-stat: objective=657
%%%mzn-stat: nodes=936
%%%mzn-stat: restarts=0
%%%mzn-stat: peakDepth=936
%%%mzn-stat: solveTime=0.001678383
%%%mzn-stat: variables=1601
%%%mzn-stat: propagators=2449
%%%mzn-stat: failures=0
%%%mzn-stat: propagations=7681
%%%mzn-stat: nogoods=0
%%%mzn-stat: numAtomicConstraintsPropagated=0
%%%mzn-stat: circuitNumber1226PropagationsThatFoundConflict=0
%%%mzn-stat: circuitNumber1226TotalFixedEdgesAtConflict=0
%%%mzn-stat: circuitNumber1226NumberOfConflicts=0
%%%mzn-stat: circuitNumber1226PropagationsThatPruned=1
%%%mzn-stat: circuitNumber1226PropagationsTotal=44
%%%mzn-stat: AverageConflictSize=0
%%%mzn-stat: NumUnitNogoodsLearned=0
%%%mzn-stat: AverageLearnedNogoodLength=0
%%%mzn-stat: AverageBacktrackAmount=0
%%%mzn-stat: AverageLbd=0
%%%mzn-stat: 2AutonomousSearchNumBackupCalled=893
%%%mzn-stat: 2AutonomousSearchNumPredicatesRemoved=0
%%%mzn-stat: 2AutonomousSearchNumCalls=894
%%%mzn-stat: 2AutonomousSearchNumPredicatesAdded=0
%%%mzn-stat: 2AutonomousSearchAverageSizeOfHeap=0
%%%mzn-stat: 2AutonomousSearchNumAssignedPredicatesEncountered=0
%%%mzn-stat-end
maxleg = 657;
succ = array1d(1..50,[2, 7, 1, 5, 10, 3, 4, 14, 6, 11, 12, 18, 9, 13, 20, 8, 16, 19, 23, 24, 15, 17, 32, 33, 21, 22, 28, 30, 26, 31, 35, 25, 34, 38, 39, 29, 36, 27, 42, 41, 44, 45, 48, 46, 43, 49, 40, 50, 37, 47]);
% time elapsed: 2.76 s
----------
%%%mzn-stat: initTime=0.039908258
%%%mzn-stat: objective=578
%%%mzn-stat: nodes=1857
%%%mzn-stat: restarts=0
%%%mzn-stat: peakDepth=936
%%%mzn-stat: solveTime=0.004006977
%%%mzn-stat: variables=1601
%%%mzn-stat: propagators=2449
%%%mzn-stat: failures=2
%%%mzn-stat: propagations=12542
%%%mzn-stat: nogoods=2
%%%mzn-stat: numAtomicConstraintsPropagated=0
%%%mzn-stat: circuitNumber1226PropagationsThatFoundConflict=0
%%%mzn-stat: circuitNumber1226TotalFixedEdgesAtConflict=0
%%%mzn-stat: circuitNumber1226NumberOfConflicts=0
%%%mzn-stat: circuitNumber1226PropagationsThatPruned=4
%%%mzn-stat: circuitNumber1226PropagationsTotal=90
%%%mzn-stat: AverageConflictSize=2
%%%mzn-stat: NumUnitNogoodsLearned=0
%%%mzn-stat: AverageLearnedNogoodLength=41.5
%%%mzn-stat: AverageBacktrackAmount=0
%%%mzn-stat: AverageLbd=41.5
%%%mzn-stat: 2AutonomousSearchNumBackupCalled=1769
%%%mzn-stat: 2AutonomousSearchNumPredicatesRemoved=0
%%%mzn-stat: 2AutonomousSearchNumCalls=1771
%%%mzn-stat: 2AutonomousSearchNumPredicatesAdded=90
%%%mzn-stat: 2AutonomousSearchAverageSizeOfHeap=0.050818746470920384
%%%mzn-stat: 2AutonomousSearchNumAssignedPredicatesEncountered=90
%%%mzn-stat-end
maxleg = 578;
succ = array1d(1..50,[2, 7, 1, 5, 10, 3, 8, 14, 6, 11, 12, 18, 9, 17, 13, 22, 16, 19, 20, 15, 25, 26, 24, 32, 36, 21, 4, 27, 37, 28, 30, 31, 23, 33, 34, 29, 46, 35, 38, 41, 47, 39, 45, 40, 42, 49, 50, 43, 44, 48]);
% time elapsed: 2.76 s
----------
%%%mzn-stat: initTime=0.039908258
%%%mzn-stat: objective=573
%%%mzn-stat: nodes=2795
%%%mzn-stat: restarts=0
%%%mzn-stat: peakDepth=937
%%%mzn-stat: solveTime=0.005679918
%%%mzn-stat: variables=1601
%%%mzn-stat: propagators=2449
%%%mzn-stat: failures=4
%%%mzn-stat: propagations=17437
%%%mzn-stat: nogoods=4
%%%mzn-stat: numAtomicConstraintsPropagated=0
%%%mzn-stat: circuitNumber1226PropagationsThatFoundConflict=0
%%%mzn-stat: circuitNumber1226TotalFixedEdgesAtConflict=0
%%%mzn-stat: circuitNumber1226NumberOfConflicts=0
%%%mzn-stat: circuitNumber1226PropagationsThatPruned=7
%%%mzn-stat: circuitNumber1226PropagationsTotal=136
%%%mzn-stat: AverageConflictSize=2
%%%mzn-stat: NumUnitNogoodsLearned=0
%%%mzn-stat: AverageLearnedNogoodLength=41.5
%%%mzn-stat: AverageBacktrackAmount=0
%%%mzn-stat: AverageLbd=41.5
%%%mzn-stat: 2AutonomousSearchNumBackupCalled=2662
%%%mzn-stat: 2AutonomousSearchNumPredicatesRemoved=0
%%%mzn-stat: 2AutonomousSearchNumCalls=2665
%%%mzn-stat: 2AutonomousSearchNumPredicatesAdded=180
%%%mzn-stat: 2AutonomousSearchAverageSizeOfHeap=0.06941838649155722
%%%mzn-stat: 2AutonomousSearchNumAssignedPredicatesEncountered=185
%%%mzn-stat-end
maxleg = 573;
succ = array1d(1..50,[2, 7, 1, 5, 10, 3, 8, 14, 6, 11, 12, 18, 9, 17, 13, 22, 16, 19, 20, 15, 25, 26, 24, 32, 36, 21, 4, 27, 37, 28, 35, 31, 23, 33, 30, 29, 46, 34, 38, 41, 47, 39, 45, 40, 42, 49, 50, 43, 44, 48]);
% time elapsed: 2.76 s
----------
%%%mzn-stat: initTime=0.039908258
%%%mzn-stat: objective=506
%%%mzn-stat: nodes=3705
%%%mzn-stat: restarts=0
%%%mzn-stat: peakDepth=937
%%%mzn-stat: solveTime=0.00866577
%%%mzn-stat: variables=1601
%%%mzn-stat: propagators=2449
%%%mzn-stat: failures=18
%%%mzn-stat: propagations=25837
%%%mzn-stat: nogoods=18
%%%mzn-stat: numAtomicConstraintsPropagated=0
%%%mzn-stat: circuitNumber1226PropagationsThatFoundConflict=3
%%%mzn-stat: circuitNumber1226TotalFixedEdgesAtConflict=135
%%%mzn-stat: circuitNumber1226NumberOfConflicts=3
%%%mzn-stat: circuitNumber1226PropagationsThatPruned=15
%%%mzn-stat: circuitNumber1226PropagationsTotal=199
%%%mzn-stat: AverageConflictSize=2.611111111111111
%%%mzn-stat: NumUnitNogoodsLearned=0
%%%mzn-stat: AverageLearnedNogoodLength=23.055555555555557
%%%mzn-stat: AverageBacktrackAmount=0
%%%mzn-stat: AverageLbd=19.555555555555557
%%%mzn-stat: 2AutonomousSearchNumBackupCalled=3512
%%%mzn-stat: 2AutonomousSearchNumPredicatesRemoved=0
%%%mzn-stat: 2AutonomousSearchNumCalls=3516
%%%mzn-stat: 2AutonomousSearchNumPredicatesAdded=459
%%%mzn-stat: 2AutonomousSearchAverageSizeOfHeap=0.1356655290102389
%%%mzn-stat: 2AutonomousSearchNumAssignedPredicatesEncountered=477
%%%mzn-stat-end
maxleg = 506;
succ = array1d(1..50,[2, 7, 1, 5, 10, 3, 8, 14, 6, 11, 12, 18, 9, 17, 13, 22, 16, 19, 20, 15, 25, 26, 24, 32, 36, 21, 4, 27, 37, 28, 35, 31, 23, 33, 38, 29, 46, 30, 42, 47, 50, 41, 45, 40, 39, 49, 48, 43, 44, 34]);
% time elapsed: 2.76 s
----------
%%%mzn-stat: initTime=0.039908258
%%%mzn-stat: objective=471
%%%mzn-stat: nodes=4580
%%%mzn-stat: restarts=0
%%%mzn-stat: peakDepth=937
%%%mzn-stat: solveTime=0.01136358
%%%mzn-stat: variables=1601
%%%mzn-stat: propagators=2449
%%%mzn-stat: failures=21
%%%mzn-stat: propagations=31484
%%%mzn-stat: nogoods=21
%%%mzn-stat: numAtomicConstraintsPropagated=0
%%%mzn-stat: circuitNumber1226PropagationsThatFoundConflict=3
%%%mzn-stat: circuitNumber1226TotalFixedEdgesAtConflict=135
%%%mzn-stat: circuitNumber1226NumberOfConflicts=3
%%%mzn-stat: circuitNumber1226PropagationsThatPruned=22
%%%mzn-stat: circuitNumber1226PropagationsTotal=250
%%%mzn-stat: AverageConflictSize=2.5238095238095237
%%%mzn-stat: NumUnitNogoodsLearned=0
%%%mzn-stat: AverageLearnedNogoodLength=25.80952380952381
%%%mzn-stat: AverageBacktrackAmount=0
%%%mzn-stat: AverageLbd=22.523809523809526
%%%mzn-stat: 2AutonomousSearchNumBackupCalled=4343
%%%mzn-stat: 2AutonomousSearchNumPredicatesRemoved=0
%%%mzn-stat: 2AutonomousSearchNumCalls=4348
%%%mzn-stat: 2AutonomousSearchNumPredicatesAdded=677
%%%mzn-stat: 2AutonomousSearchAverageSizeOfHeap=0.1780128794848206
%%%mzn-stat: 2AutonomousSearchNumAssignedPredicatesEncountered=774
%%%mzn-stat-end
maxleg = 471;
succ = array1d(1..50,[2, 7, 1, 5, 10, 3, 8, 14, 6, 11, 12, 19, 9, 17, 13, 22, 16, 20, 18, 15, 25, 26, 24, 32, 36, 21, 4, 27, 37, 28, 35, 31, 23, 33, 38, 29, 46, 30, 42, 47, 50, 41, 45, 40, 39, 49, 48, 43, 44, 34]);
% time elapsed: 2.77 s
----------
%%%mzn-stat: initTime=0.039908258
%%%mzn-stat: objective=462
%%%mzn-stat: nodes=5429
%%%mzn-stat: restarts=0
%%%mzn-stat: peakDepth=937
%%%mzn-stat: solveTime=0.012409818
%%%mzn-stat: variables=1601
%%%mzn-stat: propagators=2449
%%%mzn-stat: failures=21
%%%mzn-stat: propagations=35842
%%%mzn-stat: nogoods=21
%%%mzn-stat: numAtomicConstraintsPropagated=0
%%%mzn-stat: circuitNumber1226PropagationsThatFoundConflict=3
%%%mzn-stat: circuitNumber1226TotalFixedEdgesAtConflict=135
%%%mzn-stat: circuitNumber1226NumberOfConflicts=3
%%%mzn-stat: circuitNumber1226PropagationsThatPruned=23
%%%mzn-stat: circuitNumber1226PropagationsTotal=292
%%%mzn-stat: AverageConflictSize=2.5238095238095237
%%%mzn-stat: NumUnitNogoodsLearned=0
%%%mzn-stat: AverageLearnedNogoodLength=25.80952380952381
%%%mzn-stat: AverageBacktrackAmount=0
%%%mzn-stat: AverageLbd=22.523809523809526
%%%mzn-stat: 2AutonomousSearchNumBackupCalled=5150
%%%mzn-stat: 2AutonomousSearchNumPredicatesRemoved=0
%%%mzn-stat: 2AutonomousSearchNumCalls=5156
%%%mzn-stat: 2AutonomousSearchNumPredicatesAdded=677
%%%mzn-stat: 2AutonomousSearchAverageSizeOfHeap=0.20771916214119474
%%%mzn-stat: 2AutonomousSearchNumAssignedPredicatesEncountered=1071
%%%mzn-stat-end
maxleg = 462;
succ = array1d(1..50,[2, 7, 1, 5, 10, 3, 8, 14, 6, 11, 12, 21, 9, 17, 13, 22, 16, 19, 20, 15, 25, 26, 18, 23, 32, 29, 4, 27, 36, 28, 35, 24, 34, 38, 39, 37, 46, 30, 42, 41, 31, 45, 48, 40, 43, 49, 50, 47, 44, 33]);
% time elapsed: 2.77 s
----------
%%%mzn-stat: initTime=0.039908258
%%%mzn-stat: objective=446
%%%mzn-stat: nodes=6350
%%%mzn-stat: restarts=0
%%%mzn-stat: peakDepth=937
%%%mzn-stat: solveTime=0.021906482
%%%mzn-stat: variables=1601
%%%mzn-stat: propagators=2449
%%%mzn-stat: failures=61
%%%mzn-stat: propagations=56141
%%%mzn-stat: nogoods=61
%%%mzn-stat: numAtomicConstraintsPropagated=0
%%%mzn-stat: circuitNumber1226PropagationsThatFoundConflict=24
%%%mzn-stat: circuitNumber1226TotalFixedEdgesAtConflict=1140
%%%mzn-stat: circuitNumber1226NumberOfConflicts=24
%%%mzn-stat: circuitNumber1226PropagationsThatPruned=46
%%%mzn-stat: circuitNumber1226PropagationsTotal=412
%%%mzn-stat: AverageConflictSize=11.163934426229508
%%%mzn-stat: NumUnitNogoodsLearned=0
%%%mzn-stat: AverageLearnedNogoodLength=28.688524590163933
%%%mzn-stat: AverageBacktrackAmount=0
%%%mzn-stat: AverageLbd=22.688524590163933
%%%mzn-stat: 2AutonomousSearchNumBackupCalled=5977
%%%mzn-stat: 2AutonomousSearchNumPredicatesRemoved=0
%%%mzn-stat: 2AutonomousSearchNumCalls=5984
%%%mzn-stat: 2AutonomousSearchNumPredicatesAdded=1149
%%%mzn-stat: 2AutonomousSearchAverageSizeOfHeap=0.2647058823529412
%%%mzn-stat: 2AutonomousSearchNumAssignedPredicatesEncountered=1584
%%%mzn-stat-end
maxleg = 446;
succ = array1d(1..50,[2, 7, 1, 5, 10, 3, 8, 14, 6, 11, 12, 21, 9, 17, 13, 22, 16, 19, 20, 15, 25, 26, 18, 23, 32, 29, 4, 27, 36, 28, 35, 24, 34, 38, 39, 40, 49, 30, 42, 44, 31, 45, 48, 46, 43, 37, 50, 47, 41, 33]);
% time elapsed: 2.78 s
----------
%%%mzn-stat: initTime=0.039908258
%%%mzn-stat: objective=443
%%%mzn-stat: nodes=116052
%%%mzn-stat: restarts=0
%%%mzn-stat: peakDepth=937
%%%mzn-stat: solveTime=29.195021639
%%%mzn-stat: variables=1601
%%%mzn-stat: propagators=2449
%%%mzn-stat: failures=97152
%%%mzn-stat: propagations=25033066
%%%mzn-stat: nogoods=97152
%%%mzn-stat: numAtomicConstraintsPropagated=0
%%%mzn-stat: circuitNumber1226PropagationsThatFoundConflict=285
%%%mzn-stat: circuitNumber1226TotalFixedEdgesAtConflict=12372
%%%mzn-stat: circuitNumber1226NumberOfConflicts=285
%%%mzn-stat: circuitNumber1226PropagationsThatPruned=14608
%%%mzn-stat: circuitNumber1226PropagationsTotal=90226
%%%mzn-stat: AverageConflictSize=14.87603960803689
%%%mzn-stat: NumUnitNogoodsLearned=0
%%%mzn-stat: AverageLearnedNogoodLength=39.995748929512516
%%%mzn-stat: AverageBacktrackAmount=0
%%%mzn-stat: AverageLbd=15.776968050065877
%%%mzn-stat: 2AutonomousSearchNumBackupCalled=6793
%%%mzn-stat: 2AutonomousSearchNumPredicatesRemoved=0
%%%mzn-stat: 2AutonomousSearchNumCalls=6801
%%%mzn-stat: 2AutonomousSearchNumPredicatesAdded=2170
%%%mzn-stat: 2AutonomousSearchAverageSizeOfHeap=0.3887663578885458
%%%mzn-stat: 2AutonomousSearchNumAssignedPredicatesEncountered=2644
%%%mzn-stat-end
maxleg = 443;
succ = array1d(1..50,[2, 7, 1, 5, 10, 3, 8, 14, 6, 11, 12, 21, 9, 17, 13, 22, 16, 19, 20, 15, 25, 26, 18, 23, 32, 29, 4, 27, 37, 28, 35, 24, 34, 38, 39, 40, 46, 30, 42, 41, 31, 45, 48, 36, 43, 49, 50, 47, 44, 33]);
% time elapsed: 31.95 s
----------
%%%mzn-stat: initTime=0.039908258
%%%mzn-stat: objective=442
%%%mzn-stat: nodes=116906
%%%mzn-stat: restarts=0
%%%mzn-stat: peakDepth=937
%%%mzn-stat: solveTime=29.197834115
%%%mzn-stat: variables=1601
%%%mzn-stat: propagators=2449
%%%mzn-stat: failures=97155
%%%mzn-stat: propagations=25038106
%%%mzn-stat: nogoods=97155
%%%mzn-stat: numAtomicConstraintsPropagated=0
%%%mzn-stat: circuitNumber1226PropagationsThatFoundConflict=287
%%%mzn-stat: circuitNumber1226TotalFixedEdgesAtConflict=12459
%%%mzn-stat: circuitNumber1226NumberOfConflicts=287
%%%mzn-stat: circuitNumber1226PropagationsThatPruned=14610
%%%mzn-stat: circuitNumber1226PropagationsTotal=90275
%%%mzn-stat: AverageConflictSize=14.875796407801966
%%%mzn-stat: NumUnitNogoodsLearned=0
%%%mzn-stat: AverageLearnedNogoodLength=39.99519324790283
%%%mzn-stat: AverageBacktrackAmount=0
%%%mzn-stat: AverageLbd=15.776769080335546
%%%mzn-stat: 2AutonomousSearchNumBackupCalled=7601
%%%mzn-stat: 2AutonomousSearchNumPredicatesRemoved=0
%%%mzn-stat: 2AutonomousSearchNumCalls=7610
%%%mzn-stat: 2AutonomousSearchNumPredicatesAdded=2335
%%%mzn-stat: 2AutonomousSearchAverageSizeOfHeap=0.4873850197109067
%%%mzn-stat: 2AutonomousSearchNumAssignedPredicatesEncountered=3709
%%%mzn-stat-end
maxleg = 442;
succ = array1d(1..50,[2, 7, 1, 5, 10, 3, 8, 14, 6, 11, 12, 21, 9, 17, 13, 22, 16, 19, 20, 15, 25, 26, 18, 23, 32, 29, 4, 27, 37, 28, 35, 24, 34, 38, 39, 41, 46, 30, 42, 47, 40, 45, 48, 36, 43, 49, 31, 50, 44, 33]);
% time elapsed: 31.96 s
----------
%%%mzn-stat: initTime=0.039908258
%%%mzn-stat: objective=438
%%%mzn-stat: nodes=209899
%%%mzn-stat: restarts=0
%%%mzn-stat: peakDepth=937
%%%mzn-stat: solveTime=54.83554498
%%%mzn-stat: variables=1601
%%%mzn-stat: propagators=2449
%%%mzn-stat: failures=171943
%%%mzn-stat: propagations=45423153
%%%mzn-stat: nogoods=171943
%%%mzn-stat: numAtomicConstraintsPropagated=0
%%%mzn-stat: circuitNumber1226PropagationsThatFoundConflict=451
%%%mzn-stat: circuitNumber1226TotalFixedEdgesAtConflict=19626
%%%mzn-stat: circuitNumber1226NumberOfConflicts=451
%%%mzn-stat: circuitNumber1226PropagationsThatPruned=22324
%%%mzn-stat: circuitNumber1226PropagationsTotal=161879
%%%mzn-stat: AverageConflictSize=15.515839551479269
%%%mzn-stat: NumUnitNogoodsLearned=0
%%%mzn-stat: AverageLearnedNogoodLength=40.64435888637514
%%%mzn-stat: AverageBacktrackAmount=0
%%%mzn-stat: AverageLbd=15.702197821371035
%%%mzn-stat: 2AutonomousSearchNumBackupCalled=8378
%%%mzn-stat: 2AutonomousSearchNumPredicatesRemoved=0
%%%mzn-stat: 2AutonomousSearchNumCalls=8388
%%%mzn-stat: 2AutonomousSearchNumPredicatesAdded=3311
%%%mzn-stat: 2AutonomousSearchAverageSizeOfHeap=0.5720076299475441
%%%mzn-stat: 2AutonomousSearchNumAssignedPredicatesEncountered=4798
%%%mzn-stat-end
maxleg = 438;
succ = array1d(1..50,[2, 7, 1, 5, 10, 3, 8, 14, 6, 11, 12, 21, 9, 17, 13, 22, 16, 19, 20, 15, 25, 26, 18, 23, 32, 29, 4, 30, 37, 27, 28, 24, 34, 38, 31, 41, 46, 39, 42, 47, 40, 43, 45, 36, 35, 49, 48, 50, 44, 33]);
% time elapsed: 57.61 s
----------
%%%mzn-stat: initTime=0.039908258
%%%mzn-stat: objective=396
%%%mzn-stat: nodes=228317
%%%mzn-stat: restarts=0
%%%mzn-stat: peakDepth=937
%%%mzn-stat: solveTime=59.042435581
%%%mzn-stat: variables=1601
%%%mzn-stat: propagators=2449
%%%mzn-stat: failures=186297
%%%mzn-stat: propagations=49443202
%%%mzn-stat: nogoods=186297
%%%mzn-stat: numAtomicConstraintsPropagated=0
%%%mzn-stat: circuitNumber1226PropagationsThatFoundConflict=478
%%%mzn-stat: circuitNumber1226TotalFixedEdgesAtConflict=20781
%%%mzn-stat: circuitNumber1226NumberOfConflicts=478
%%%mzn-stat: circuitNumber1226PropagationsThatPruned=23533
%%%mzn-stat: circuitNumber1226PropagationsTotal=174355
%%%mzn-stat: AverageConflictSize=15.580755460367048
%%%mzn-stat: NumUnitNogoodsLearned=0
%%%mzn-stat: AverageLearnedNogoodLength=40.817962715448985
%%%mzn-stat: AverageBacktrackAmount=0
%%%mzn-stat: AverageLbd=15.637036559901663
%%%mzn-stat: 2AutonomousSearchNumBackupCalled=9099
%%%mzn-stat: 2AutonomousSearchNumPredicatesRemoved=0
%%%mzn-stat: 2AutonomousSearchNumCalls=9110
%%%mzn-stat: 2AutonomousSearchNumPredicatesAdded=4269
%%%mzn-stat: 2AutonomousSearchAverageSizeOfHeap=0.6465422612513722
%%%mzn-stat: 2AutonomousSearchNumAssignedPredicatesEncountered=5890
%%%mzn-stat-end
maxleg = 396;
succ = array1d(1..50,[2, 7, 1, 5, 10, 3, 8, 14, 6, 11, 12, 21, 9, 17, 13, 22, 16, 19, 20, 15, 25, 26, 18, 23, 32, 29, 4, 31, 37, 27, 35, 24, 34, 38, 39, 41, 46, 43, 30, 47, 40, 28, 45, 36, 42, 49, 48, 50, 44, 33]);
% time elapsed: 61.81 s
----------
%%%mzn-stat: initTime=0.039908258
%%%mzn-stat: objective=390
%%%mzn-stat: nodes=229089
%%%mzn-stat: restarts=0
%%%mzn-stat: peakDepth=937
%%%mzn-stat: solveTime=59.044552783
%%%mzn-stat: variables=1601
%%%mzn-stat: propagators=2449
%%%mzn-stat: failures=186297
%%%mzn-stat: propagations=49447664
%%%mzn-stat: nogoods=186297
%%%mzn-stat: numAtomicConstraintsPropagated=0
%%%mzn-stat: circuitNumber1226PropagationsThatFoundConflict=478
%%%mzn-stat: circuitNumber1226TotalFixedEdgesAtConflict=20781
%%%mzn-stat: circuitNumber1226NumberOfConflicts=478
%%%mzn-stat: circuitNumber1226PropagationsThatPruned=23534
%%%mzn-stat: circuitNumber1226PropagationsTotal=174397
%%%mzn-stat: AverageConflictSize=15.580755460367048
%%%mzn-stat: NumUnitNogoodsLearned=0
%%%mzn-stat: AverageLearnedNogoodLength=40.817962715448985
%%%mzn-stat: AverageBacktrackAmount=0
%%%mzn-stat: AverageLbd=15.637036559901663
%%%mzn-stat: 2AutonomousSearchNumBackupCalled=9829
%%%mzn-stat: 2AutonomousSearchNumPredicatesRemoved=0
%%%mzn-stat: 2AutonomousSearchNumCalls=9841
%%%mzn-stat: 2AutonomousSearchNumPredicatesAdded=4269
%%%mzn-stat: 2AutonomousSearchAverageSizeOfHeap=0.7094807438268469
%%%mzn-stat: 2AutonomousSearchNumAssignedPredicatesEncountered=6982
%%%mzn-stat-end
maxleg = 390;
succ = array1d(1..50,[2, 7, 1, 5, 10, 3, 8, 14, 6, 11, 12, 21, 9, 17, 13, 22, 16, 19, 20, 15, 25, 26, 18, 23, 32, 29, 4, 31, 37, 27, 35, 24, 34, 38, 39, 41, 46, 43, 30, 47, 40, 28, 45, 36, 42, 49, 50, 33, 44, 48]);
% time elapsed: 61.82 s
----------
%%%mzn-stat: initTime=0.039908258
%%%mzn-stat: objective=389
%%%mzn-stat: nodes=229878
%%%mzn-stat: restarts=0
%%%mzn-stat: peakDepth=937
%%%mzn-stat: solveTime=59.046093139
%%%mzn-stat: variables=1601
%%%mzn-stat: propagators=2449
%%%mzn-stat: failures=186297
%%%mzn-stat: propagations=49452123
%%%mzn-stat: nogoods=186297
%%%mzn-stat: numAtomicConstraintsPropagated=0
%%%mzn-stat: circuitNumber1226PropagationsThatFoundConflict=478
%%%mzn-stat: circuitNumber1226TotalFixedEdgesAtConflict=20781
%%%mzn-stat: circuitNumber1226NumberOfConflicts=478
%%%mzn-stat: circuitNumber1226PropagationsThatPruned=23535
%%%mzn-stat: circuitNumber1226PropagationsTotal=174438
%%%mzn-stat: AverageConflictSize=15.580755460367048
%%%mzn-stat: NumUnitNogoodsLearned=0
%%%mzn-stat: AverageLearnedNogoodLength=40.817962715448985
%%%mzn-stat: AverageBacktrackAmount=0
%%%mzn-stat: AverageLbd=15.637036559901663
%%%mzn-stat: 2AutonomousSearchNumBackupCalled=10578
%%%mzn-stat: 2AutonomousSearchNumPredicatesRemoved=0
%%%mzn-stat: 2AutonomousSearchNumCalls=10591
%%%mzn-stat: 2AutonomousSearchNumPredicatesAdded=4269
%%%mzn-stat: 2AutonomousSearchAverageSizeOfHeap=0.7623453875932396
%%%mzn-stat: 2AutonomousSearchNumAssignedPredicatesEncountered=8074
%%%mzn-stat-end
maxleg = 389;
succ = array1d(1..50,[2, 7, 1, 5, 10, 3, 8, 14, 6, 11, 12, 21, 9, 17, 13, 22, 16, 19, 20, 15, 25, 26, 18, 23, 32, 29, 4, 31, 37, 27, 35, 24, 34, 38, 39, 41, 46, 43, 30, 47, 44, 28, 45, 40, 42, 49, 50, 33, 36, 48]);
% time elapsed: 61.82 s
----------
%%%mzn-stat: initTime=0.039908258
%%%mzn-stat: objective=384
%%%mzn-stat: nodes=230654
%%%mzn-stat: restarts=0
%%%mzn-stat: peakDepth=937
%%%mzn-stat: solveTime=59.048436075
%%%mzn-stat: variables=1601
%%%mzn-stat: propagators=2449
%%%mzn-stat: failures=186299
%%%mzn-stat: propagations=49457139
%%%mzn-stat: nogoods=186299
%%%mzn-stat: numAtomicConstraintsPropagated=0
%%%mzn-stat: circuitNumber1226PropagationsThatFoundConflict=480
%%%mzn-stat: circuitNumber1226TotalFixedEdgesAtConflict=20876
%%%mzn-stat: circuitNumber1226NumberOfConflicts=480
%%%mzn-stat: circuitNumber1226PropagationsThatPruned=23536
%%%mzn-stat: circuitNumber1226PropagationsTotal=174481
%%%mzn-stat: AverageConflictSize=15.58100687604335
%%%mzn-stat: NumUnitNogoodsLearned=0
%%%mzn-stat: AverageLearnedNogoodLength=40.81809886258112
%%%mzn-stat: AverageBacktrackAmount=0
%%%mzn-stat: AverageLbd=15.637244429653407
%%%mzn-stat: 2AutonomousSearchNumBackupCalled=11312
%%%mzn-stat: 2AutonomousSearchNumPredicatesRemoved=0
%%%mzn-stat: 2AutonomousSearchNumCalls=11326
%%%mzn-stat: 2AutonomousSearchNumPredicatesAdded=4392
%%%mzn-stat: 2AutonomousSearchAverageSizeOfHeap=0.8094649479074696
%%%mzn-stat: 2AutonomousSearchNumAssignedPredicatesEncountered=9168
%%%mzn-stat-end
maxleg = 384;
succ = array1d(1..50,[2, 7, 1, 5, 10, 3, 8, 14, 6, 11, 12, 21, 9, 17, 13, 22, 16, 19, 20, 15, 25, 26, 18, 23, 32, 29, 4, 31, 37, 27, 35, 36, 34, 24, 38, 44, 46, 30, 28, 47, 42, 43, 45, 40, 39, 49, 50, 33, 41, 48]);
% time elapsed: 61.82 s
----------
%%%mzn-stat: initTime=0.039908258
%%%mzn-stat: objective=382
%%%mzn-stat: nodes=231411
%%%mzn-stat: restarts=0
%%%mzn-stat: peakDepth=937
%%%mzn-stat: solveTime=59.050717206
%%%mzn-stat: variables=1601
%%%mzn-stat: propagators=2449
%%%mzn-stat: failures=186301
%%%mzn-stat: propagations=49462162
%%%mzn-stat: nogoods=186301
%%%mzn-stat: numAtomicConstraintsPropagated=0
%%%mzn-stat: circuitNumber1226PropagationsThatFoundConflict=481
%%%mzn-stat: circuitNumber1226TotalFixedEdgesAtConflict=20926
%%%mzn-stat: circuitNumber1226NumberOfConflicts=481
%%%mzn-stat: circuitNumber1226PropagationsThatPruned=23537
%%%mzn-stat: circuitNumber1226PropagationsTotal=174523
%%%mzn-stat: AverageConflictSize=15.581269021637029
%%%mzn-stat: NumUnitNogoodsLearned=0
%%%mzn-stat: AverageLearnedNogoodLength=40.81825110976323
%%%mzn-stat: AverageBacktrackAmount=0
%%%mzn-stat: AverageLbd=15.63744692728434
%%%mzn-stat: 2AutonomousSearchNumBackupCalled=12028
%%%mzn-stat: 2AutonomousSearchNumPredicatesRemoved=0
%%%mzn-stat: 2AutonomousSearchNumCalls=12043
%%%mzn-stat: 2AutonomousSearchNumPredicatesAdded=4530
%%%mzn-stat: 2AutonomousSearchAverageSizeOfHeap=0.8521132608154114
%%%mzn-stat: 2AutonomousSearchNumAssignedPredicatesEncountered=10262
%%%mzn-stat-end
maxleg = 382;
succ = array1d(1..50,[2, 7, 1, 5, 10, 3, 8, 14, 6, 11, 12, 21, 9, 17, 13, 22, 16, 19, 20, 15, 25, 26, 18, 23, 32, 29, 4, 31, 37, 27, 35, 36, 34, 24, 39, 44, 46, 30, 38, 47, 42, 43, 45, 40, 28, 49, 50, 33, 41, 48]);
% time elapsed: 61.83 s
----------
%%%mzn-stat: initTime=0.039908258
%%%mzn-stat: objective=371
%%%mzn-stat: nodes=232126
%%%mzn-stat: restarts=0
%%%mzn-stat: peakDepth=937
%%%mzn-stat: solveTime=59.052073807
%%%mzn-stat: variables=1601
%%%mzn-stat: propagators=2449
%%%mzn-stat: failures=186301
%%%mzn-stat: propagations=49466639
%%%mzn-stat: nogoods=186301
%%%mzn-stat: numAtomicConstraintsPropagated=0
%%%mzn-stat: circuitNumber1226PropagationsThatFoundConflict=481
%%%mzn-stat: circuitNumber1226TotalFixedEdgesAtConflict=20926
%%%mzn-stat: circuitNumber1226NumberOfConflicts=481
%%%mzn-stat: circuitNumber1226PropagationsThatPruned=23538
%%%mzn-stat: circuitNumber1226PropagationsTotal=174562
%%%mzn-stat: AverageConflictSize=15.581269021637029
%%%mzn-stat: NumUnitNogoodsLearned=0
%%%mzn-stat: AverageLearnedNogoodLength=40.81825110976323
%%%mzn-stat: AverageBacktrackAmount=0
%%%mzn-stat: AverageLbd=15.63744692728434
%%%mzn-stat: 2AutonomousSearchNumBackupCalled=12704
%%%mzn-stat: 2AutonomousSearchNumPredicatesRemoved=0
%%%mzn-stat: 2AutonomousSearchNumCalls=12720
%%%mzn-stat: 2AutonomousSearchNumPredicatesAdded=4530
%%%mzn-stat: 2AutonomousSearchAverageSizeOfHeap=0.8927672955974842
%%%mzn-stat: 2AutonomousSearchNumAssignedPredicatesEncountered=11356
%%%mzn-stat-end
maxleg = 371;
succ = array1d(1..50,[2, 7, 1, 5, 10, 3, 8, 14, 6, 11, 12, 21, 9, 17, 13, 22, 16, 19, 20, 15, 25, 26, 18, 23, 32, 29, 4, 31, 37, 27, 35, 36, 34, 38, 39, 44, 46, 43, 30, 24, 47, 28, 45, 40, 42, 49, 50, 33, 41, 48]);
% time elapsed: 61.83 s
----------
%%%mzn-stat: initTime=0.039908258
%%%mzn-stat: objective=364
%%%mzn-stat: nodes=262766
%%%mzn-stat: restarts=0
%%%mzn-stat: peakDepth=937
%%%mzn-stat: solveTime=67.09366698
%%%mzn-stat: variables=1601
%%%mzn-stat: propagators=2449
%%%mzn-stat: failures=208963
%%%mzn-stat: propagations=56857825
%%%mzn-stat: nogoods=208963
%%%mzn-stat: numAtomicConstraintsPropagated=0
%%%mzn-stat: circuitNumber1226PropagationsThatFoundConflict=804
%%%mzn-stat: circuitNumber1226TotalFixedEdgesAtConflict=34009
%%%mzn-stat: circuitNumber1226NumberOfConflicts=804
%%%mzn-stat: circuitNumber1226PropagationsThatPruned=26632
%%%mzn-stat: circuitNumber1226PropagationsTotal=200996
%%%mzn-stat: AverageConflictSize=15.921344927092356
%%%mzn-stat: NumUnitNogoodsLearned=0
%%%mzn-stat: AverageLearnedNogoodLength=42.569067251140154
%%%mzn-stat: AverageBacktrackAmount=0
%%%mzn-stat: AverageLbd=16.077310337236735
%%%mzn-stat: 2AutonomousSearchNumBackupCalled=13364
%%%mzn-stat: 2AutonomousSearchNumPredicatesRemoved=0
%%%mzn-stat: 2AutonomousSearchNumCalls=13381
%%%mzn-stat: 2AutonomousSearchNumPredicatesAdded=6129
%%%mzn-stat: 2AutonomousSearchAverageSizeOfHeap=0.9781780136013751
%%%mzn-stat: 2AutonomousSearchNumAssignedPredicatesEncountered=13089
%%%mzn-stat-end
maxleg = 364;
succ = array1d(1..50,[2, 7, 1, 5, 10, 3, 8, 14, 6, 11, 12, 21, 9, 17, 13, 22, 16, 19, 20, 23, 15, 26, 24, 34, 32, 29, 4, 31, 37, 27, 35, 36, 18, 38, 39, 41, 46, 43, 30, 25, 47, 28, 45, 40, 42, 49, 50, 33, 44, 48]);
% time elapsed: 69.87 s
----------
%%%mzn-stat: initTime=0.039908258
%%%mzn-stat: objective=352
%%%mzn-stat: nodes=263435
%%%mzn-stat: restarts=0
%%%mzn-stat: peakDepth=937
%%%mzn-stat: solveTime=67.097199991
%%%mzn-stat: variables=1601
%%%mzn-stat: propagators=2449
%%%mzn-stat: failures=208963
%%%mzn-stat: propagations=56862348
%%%mzn-stat: nogoods=208963
%%%mzn-stat: numAtomicConstraintsPropagated=0
%%%mzn-stat: circuitNumber1226PropagationsThatFoundConflict=804
%%%mzn-stat: circuitNumber1226TotalFixedEdgesAtConflict=34009
%%%mzn-stat: circuitNumber1226NumberOfConflicts=804
%%%mzn-stat: circuitNumber1226PropagationsThatPruned=26634
%%%mzn-stat: circuitNumber1226PropagationsTotal=201036
%%%mzn-stat: AverageConflictSize=15.921344927092356
%%%mzn-stat: NumUnitNogoodsLearned=0
%%%mzn-stat: AverageLearnedNogoodLength=42.569067251140154
%%%mzn-stat: AverageBacktrackAmount=0
%%%mzn-stat: AverageLbd=16.077310337236735
%%%mzn-stat: 2AutonomousSearchNumBackupCalled=13994
%%%mzn-stat: 2AutonomousSearchNumPredicatesRemoved=0
%%%mzn-stat: 2AutonomousSearchNumCalls=14012
%%%mzn-stat: 2AutonomousSearchNumPredicatesAdded=6129
%%%mzn-stat: 2AutonomousSearchAverageSizeOfHeap=1.0578075934912932
%%%mzn-stat: 2AutonomousSearchNumAssignedPredicatesEncountered=14822
%%%mzn-stat-end
maxleg = 352;
succ = array1d(1..50,[2, 7, 1, 5, 10, 3, 8, 14, 6, 11, 12, 21, 9, 17, 13, 22, 16, 19, 20, 23, 15, 26, 24, 34, 32, 29, 4, 31, 37, 27, 35, 36, 18, 43, 42, 41, 46, 39, 28, 25, 47, 45, 38, 40, 30, 49, 50, 33, 44, 48]);
% time elapsed: 69.88 s
----------
%%%mzn-stat: initTime=0.039908258
%%%mzn-stat: objective=349
%%%mzn-stat: nodes=382573
%%%mzn-stat: restarts=0
%%%mzn-stat: peakDepth=937
%%%mzn-stat: solveTime=103.690502681
%%%mzn-stat: variables=1601
%%%mzn-stat: propagators=2449
%%%mzn-stat: failures=300484
%%%mzn-stat: propagations=87345989
%%%mzn-stat: nogoods=300484
%%%mzn-stat: numAtomicConstraintsPropagated=0
%%%mzn-stat: circuitNumber1226PropagationsThatFoundConflict=1858
%%%mzn-stat: circuitNumber1226TotalFixedEdgesAtConflict=75222
%%%mzn-stat: circuitNumber1226NumberOfConflicts=1858
%%%mzn-stat: circuitNumber1226PropagationsThatPruned=37470
%%%mzn-stat: circuitNumber1226PropagationsTotal=296585
%%%mzn-stat: AverageConflictSize=20.90126928555264
%%%mzn-stat: NumUnitNogoodsLearned=0
%%%mzn-stat: AverageLearnedNogoodLength=55.40942945381451
%%%mzn-stat: AverageBacktrackAmount=0
%%%mzn-stat: AverageLbd=17.24367021205788
%%%mzn-stat: 2AutonomousSearchNumBackupCalled=14618
%%%mzn-stat: 2AutonomousSearchNumPredicatesRemoved=0
%%%mzn-stat: 2AutonomousSearchNumCalls=14637
%%%mzn-stat: 2AutonomousSearchNumPredicatesAdded=7818
%%%mzn-stat: 2AutonomousSearchAverageSizeOfHeap=1.1455216232834597
%%%mzn-stat: 2AutonomousSearchNumAssignedPredicatesEncountered=16767
%%%mzn-stat-end
maxleg = 349;
succ = array1d(1..50,[2, 7, 1, 5, 10, 3, 8, 14, 6, 11, 12, 21, 9, 25, 13, 17, 22, 19, 20, 23, 15, 26, 24, 34, 40, 29, 4, 16, 37, 27, 28, 31, 18, 48, 39, 32, 46, 43, 30, 44, 47, 45, 42, 36, 35, 49, 50, 38, 41, 33]);
% time elapsed: 106.48 s
----------
%%%mzn-stat: initTime=0.039908258
%%%mzn-stat: objective=348
%%%mzn-stat: nodes=383238
%%%mzn-stat: restarts=0
%%%mzn-stat: peakDepth=937
%%%mzn-stat: solveTime=103.694297743
%%%mzn-stat: variables=1601
%%%mzn-stat: propagators=2449
%%%mzn-stat: failures=300486
%%%mzn-stat: propagations=87351231
%%%mzn-stat: nogoods=300486
%%%mzn-stat: numAtomicConstraintsPropagated=0
%%%mzn-stat: circuitNumber1226PropagationsThatFoundConflict=1859
%%%mzn-stat: circuitNumber1226TotalFixedEdgesAtConflict=75272
%%%mzn-stat: circuitNumber1226NumberOfConflicts=1859
%%%mzn-stat: circuitNumber1226PropagationsThatPruned=37471
%%%mzn-stat: circuitNumber1226PropagationsTotal=296625
%%%mzn-stat: AverageConflictSize=20.901296566229377
%%%mzn-stat: NumUnitNogoodsLearned=0
%%%mzn-stat: AverageLearnedNogoodLength=55.40939344927884
%%%mzn-stat: AverageBacktrackAmount=0
%%%mzn-stat: AverageLbd=17.243725165232323
%%%mzn-stat: 2AutonomousSearchNumBackupCalled=15244
%%%mzn-stat: 2AutonomousSearchNumPredicatesRemoved=0
%%%mzn-stat: 2AutonomousSearchNumCalls=15264
%%%mzn-stat: 2AutonomousSearchNumPredicatesAdded=7985
%%%mzn-stat: 2AutonomousSearchAverageSizeOfHeap=1.225956498951782
%%%mzn-stat: 2AutonomousSearchNumAssignedPredicatesEncountered=18713
%%%mzn-stat-end
maxleg = 348;
succ = array1d(1..50,[2, 7, 1, 5, 10, 3, 8, 14, 6, 11, 12, 21, 9, 25, 13, 17, 22, 19, 20, 23, 15, 26, 24, 34, 40, 29, 4, 16, 37, 27, 28, 31, 18, 48, 39, 32, 46, 43, 42, 44, 47, 45, 35, 36, 30, 49, 50, 38, 41, 33]);
% time elapsed: 106.49 s
----------
%%%mzn-stat: initTime=0.039908258
%%%mzn-stat: objective=344
%%%mzn-stat: nodes=383877
%%%mzn-stat: restarts=0
%%%mzn-stat: peakDepth=937
%%%mzn-stat: solveTime=103.699028004
%%%mzn-stat: variables=1601
%%%mzn-stat: propagators=2449
%%%mzn-stat: failures=300489
%%%mzn-stat: propagations=87356941
%%%mzn-stat: nogoods=300489
%%%mzn-stat: numAtomicConstraintsPropagated=0
%%%mzn-stat: circuitNumber1226PropagationsThatFoundConflict=1859
%%%mzn-stat: circuitNumber1226TotalFixedEdgesAtConflict=75272
%%%mzn-stat: circuitNumber1226NumberOfConflicts=1859
%%%mzn-stat: circuitNumber1226PropagationsThatPruned=37474
%%%mzn-stat: circuitNumber1226PropagationsTotal=296671
%%%mzn-stat: AverageConflictSize=20.901107860853475
%%%mzn-stat: NumUnitNogoodsLearned=0
%%%mzn-stat: AverageLearnedNogoodLength=55.4089534059483
%%%mzn-stat: AverageBacktrackAmount=0
%%%mzn-stat: AverageLbd=17.2436095830463
%%%mzn-stat: 2AutonomousSearchNumBackupCalled=15837
%%%mzn-stat: 2AutonomousSearchNumPredicatesRemoved=0
%%%mzn-stat: 2AutonomousSearchNumCalls=15858
%%%mzn-stat: 2AutonomousSearchNumPredicatesAdded=8098
%%%mzn-stat: 2AutonomousSearchAverageSizeOfHeap=1.302749400933283
%%%mzn-stat: 2AutonomousSearchNumAssignedPredicatesEncountered=20659
%%%mzn-stat-end
maxleg = 344;
succ = array1d(1..50,[2, 7, 1, 5, 10, 3, 8, 14, 6, 11, 12, 21, 9, 25, 13, 17, 22, 19, 20, 23, 15, 26, 24, 34, 40, 29, 4, 16, 37, 27, 28, 31, 18, 48, 42, 32, 46, 43, 30, 44, 47, 45, 35, 36, 39, 49, 50, 38, 41, 33]);
% time elapsed: 106.50 s
----------
%%%mzn-stat: initTime=0.039908258
%%%mzn-stat: objective=340
%%%mzn-stat: nodes=384510
%%%mzn-stat: restarts=0
%%%mzn-stat: peakDepth=937
%%%mzn-stat: solveTime=103.707124562
%%%mzn-stat: variables=1601
%%%mzn-stat: propagators=2449
%%%mzn-stat: failures=300500
%%%mzn-stat: propagations=87366215
%%%mzn-stat: nogoods=300500
%%%mzn-stat: numAtomicConstraintsPropagated=0
%%%mzn-stat: circuitNumber1226PropagationsThatFoundConflict=1863
%%%mzn-stat: circuitNumber1226TotalFixedEdgesAtConflict=75458
%%%mzn-stat: circuitNumber1226NumberOfConflicts=1863
%%%mzn-stat: circuitNumber1226PropagationsThatPruned=37477
%%%mzn-stat: circuitNumber1226PropagationsTotal=296722
%%%mzn-stat: AverageConflictSize=20.900951747088186
%%%mzn-stat: NumUnitNogoodsLearned=0
%%%mzn-stat: AverageLearnedNogoodLength=55.408762063227954
%%%mzn-stat: AverageBacktrackAmount=0
%%%mzn-stat: AverageLbd=17.243620632279534
%%%mzn-stat: 2AutonomousSearchNumBackupCalled=16423
%%%mzn-stat: 2AutonomousSearchNumPredicatesRemoved=0
%%%mzn-stat: 2AutonomousSearchNumCalls=16445
%%%mzn-stat: 2AutonomousSearchNumPredicatesAdded=8550
%%%mzn-stat: 2AutonomousSearchAverageSizeOfHeap=1.374581939799331
%%%mzn-stat: 2AutonomousSearchNumAssignedPredicatesEncountered=22605
%%%mzn-stat-end
maxleg = 340;
succ = array1d(1..50,[2, 7, 1, 5, 10, 3, 8, 14, 6, 11, 12, 21, 9, 25, 13, 17, 22, 19, 20, 23, 15, 26, 24, 34, 40, 29, 4, 16, 37, 27, 28, 31, 48, 33, 42, 32, 46, 43, 30, 44, 47, 45, 35, 36, 39, 49, 50, 38, 41, 18]);
% time elapsed: 106.51 s
----------
%%%mzn-stat: initTime=0.039908258
%%%mzn-stat: objective=336
%%%mzn-stat: nodes=385130
%%%mzn-stat: restarts=0
%%%mzn-stat: peakDepth=937
%%%mzn-stat: solveTime=103.709551958
%%%mzn-stat: variables=1601
%%%mzn-stat: propagators=2449
%%%mzn-stat: failures=300500
%%%mzn-stat: propagations=87370758
%%%mzn-stat: nogoods=300500
%%%mzn-stat: numAtomicConstraintsPropagated=0
%%%mzn-stat: circuitNumber1226PropagationsThatFoundConflict=1863
%%%mzn-stat: circuitNumber1226TotalFixedEdgesAtConflict=75458
%%%mzn-stat: circuitNumber1226NumberOfConflicts=1863
%%%mzn-stat: circuitNumber1226PropagationsThatPruned=37478
%%%mzn-stat: circuitNumber1226PropagationsTotal=296758
%%%mzn-stat: AverageConflictSize=20.900951747088186
%%%mzn-stat: NumUnitNogoodsLearned=0
%%%mzn-stat: AverageLearnedNogoodLength=55.408762063227954
%%%mzn-stat: AverageBacktrackAmount=0
%%%mzn-stat: AverageLbd=17.243620632279534
%%%mzn-stat: 2AutonomousSearchNumBackupCalled=17008
%%%mzn-stat: 2AutonomousSearchNumPredicatesRemoved=0
%%%mzn-stat: 2AutonomousSearchNumCalls=17031
%%%mzn-stat: 2AutonomousSearchNumPredicatesAdded=8550
%%%mzn-stat: 2AutonomousSearchAverageSizeOfHeap=1.4415477658387645
%%%mzn-stat: 2AutonomousSearchNumAssignedPredicatesEncountered=24551
%%%mzn-stat-end
maxleg = 336;
succ = array1d(1..50,[2, 7, 1, 5, 10, 3, 8, 14, 6, 11, 12, 21, 9, 25, 13, 17, 22, 19, 20, 23, 15, 26, 24, 34, 40, 29, 4, 16, 37, 27, 28, 31, 48, 33, 42, 41, 46, 43, 30, 44, 47, 45, 35, 49, 39, 36, 50, 38, 32, 18]);
% time elapsed: 106.51 s
----------
=====ERROR=====
% time elapsed: 1204.09 s
